c FILE: i080-242

c SOURCE: From steinlib

c DESCRIPTION: Steinlib instance with 80 nodes and 632 edges.

p edge 80 632
e 1 8
e 1 26
e 1 29
e 1 30
e 1 31
e 1 35
e 1 38
e 1 45
e 1 53
e 1 56
e 1 69
e 1 72
e 1 75
e 1 77
e 2 6
e 2 17
e 2 21
e 2 24
e 2 28
e 2 32
e 2 38
e 2 42
e 2 49
e 2 56
e 2 64
e 2 76
e 2 78
e 3 5
e 3 13
e 3 20
e 3 21
e 3 22
e 3 24
e 3 30
e 3 42
e 3 45
e 3 46
e 3 58
e 3 60
e 3 61
e 3 62
e 3 64
e 3 66
e 3 70
e 4 10
e 4 14
e 4 18
e 4 26
e 4 29
e 4 40
e 4 48
e 4 53
e 4 71
e 4 72
e 4 78
e 5 8
e 5 12
e 5 21
e 5 39
e 5 44
e 5 45
e 5 53
e 5 55
e 5 63
e 5 64
e 5 68
e 5 72
e 5 73
e 6 16
e 6 27
e 6 30
e 6 37
e 6 38
e 6 39
e 6 42
e 6 50
e 6 60
e 6 62
e 6 66
e 6 72
e 6 78
e 7 10
e 7 14
e 7 15
e 7 18
e 7 21
e 7 26
e 7 28
e 7 32
e 7 34
e 7 36
e 7 52
e 7 54
e 7 57
e 7 58
e 7 59
e 7 66
e 7 70
e 7 76
e 8 14
e 8 24
e 8 29
e 8 32
e 8 34
e 8 44
e 8 47
e 8 62
e 8 64
e 8 67
e 8 68
e 8 72
e 9 10
e 9 14
e 9 16
e 9 20
e 9 21
e 9 25
e 9 32
e 9 39
e 9 41
e 9 45
e 9 46
e 9 48
e 9 49
e 9 59
e 9 61
e 9 79
e 9 80
e 10 13
e 10 17
e 10 33
e 10 35
e 10 36
e 10 39
e 10 50
e 10 60
e 10 63
e 10 75
e 10 79
e 11 20
e 11 21
e 11 27
e 11 33
e 11 37
e 11 42
e 11 59
e 11 67
e 11 68
e 11 75
e 11 77
e 11 79
e 12 16
e 12 18
e 12 26
e 12 37
e 12 39
e 12 41
e 12 42
e 12 49
e 12 50
e 12 54
e 12 56
e 12 61
e 12 63
e 12 74
e 12 77
e 13 14
e 13 15
e 13 18
e 13 21
e 13 25
e 13 39
e 13 43
e 13 46
e 13 47
e 13 48
e 13 53
e 13 64
e 13 73
e 14 16
e 14 27
e 14 34
e 14 37
e 14 42
e 14 43
e 14 45
e 14 47
e 14 51
e 14 60
e 14 63
e 14 72
e 14 73
e 14 76
e 14 80
e 15 16
e 15 19
e 15 32
e 15 34
e 15 47
e 15 48
e 15 50
e 15 52
e 15 53
e 15 63
e 15 66
e 15 70
e 15 74
e 16 18
e 16 21
e 16 28
e 16 32
e 16 40
e 16 42
e 16 45
e 16 48
e 16 49
e 16 54
e 16 55
e 16 59
e 16 64
e 16 65
e 16 66
e 16 67
e 16 69
e 16 72
e 16 73
e 17 20
e 17 22
e 17 34
e 17 54
e 17 57
e 17 61
e 17 68
e 17 72
e 17 75
e 17 80
e 18 19
e 18 25
e 18 26
e 18 27
e 18 29
e 18 38
e 18 41
e 18 47
e 18 51
e 18 58
e 18 60
e 18 62
e 18 64
e 18 70
e 18 72
e 18 74
e 18 78
e 18 80
e 19 23
e 19 31
e 19 35
e 19 46
e 19 59
e 19 65
e 19 68
e 19 76
e 19 77
e 20 26
e 20 27
e 20 30
e 20 31
e 20 41
e 20 44
e 20 52
e 20 55
e 20 59
e 20 65
e 20 80
e 21 37
e 21 44
e 21 47
e 21 51
e 21 55
e 21 56
e 21 58
e 21 71
e 21 75
e 21 76
e 21 79
e 22 27
e 22 34
e 22 36
e 22 43
e 22 44
e 22 45
e 22 48
e 22 49
e 22 50
e 22 51
e 22 65
e 22 66
e 22 74
e 22 76
e 22 77
e 23 27
e 23 29
e 23 34
e 23 48
e 23 49
e 23 54
e 23 58
e 23 59
e 23 62
e 23 66
e 23 76
e 24 26
e 24 36
e 24 38
e 24 40
e 24 45
e 24 49
e 24 50
e 24 52
e 24 55
e 24 60
e 24 63
e 24 72
e 24 75
e 24 79
e 25 28
e 25 31
e 25 40
e 25 45
e 25 48
e 25 52
e 25 55
e 25 61
e 25 66
e 25 67
e 25 73
e 25 74
e 25 75
e 25 77
e 26 28
e 26 34
e 26 35
e 26 36
e 26 38
e 26 44
e 26 54
e 26 55
e 26 60
e 26 69
e 26 70
e 26 73
e 27 38
e 27 44
e 27 50
e 27 53
e 27 60
e 27 63
e 27 65
e 27 70
e 27 74
e 27 78
e 28 40
e 28 42
e 28 56
e 28 63
e 28 69
e 28 72
e 29 44
e 29 45
e 29 52
e 29 53
e 29 64
e 29 71
e 29 77
e 29 79
e 30 32
e 30 34
e 30 41
e 30 44
e 30 47
e 30 48
e 30 49
e 30 50
e 30 56
e 30 58
e 30 66
e 30 69
e 30 74
e 31 32
e 31 36
e 31 39
e 31 50
e 31 58
e 31 62
e 31 73
e 31 77
e 31 78
e 32 34
e 32 45
e 32 51
e 32 53
e 32 60
e 32 62
e 32 71
e 32 76
e 33 34
e 33 37
e 33 39
e 33 48
e 33 53
e 33 60
e 33 66
e 33 70
e 33 76
e 33 78
e 33 79
e 34 51
e 34 53
e 34 62
e 34 71
e 34 74
e 34 76
e 34 78
e 34 79
e 35 36
e 35 37
e 35 53
e 35 63
e 35 64
e 35 66
e 35 67
e 35 73
e 35 77
e 35 79
e 36 39
e 36 40
e 36 44
e 36 49
e 36 58
e 36 66
e 36 78
e 36 79
e 37 47
e 37 48
e 37 56
e 37 59
e 37 63
e 37 65
e 37 72
e 37 74
e 37 79
e 38 42
e 38 45
e 38 51
e 38 53
e 38 56
e 38 62
e 38 63
e 38 65
e 38 68
e 38 72
e 38 75
e 38 77
e 39 40
e 39 51
e 39 60
e 39 63
e 39 64
e 39 65
e 39 66
e 39 69
e 39 72
e 39 77
e 39 79
e 40 54
e 40 60
e 40 69
e 40 74
e 40 78
e 41 42
e 41 70
e 41 71
e 41 72
e 42 43
e 42 44
e 42 52
e 42 64
e 42 66
e 42 67
e 42 71
e 43 50
e 43 55
e 43 56
e 43 59
e 43 72
e 43 77
e 44 45
e 44 65
e 44 74
e 44 76
e 45 47
e 45 58
e 45 67
e 45 72
e 45 77
e 46 52
e 46 53
e 46 55
e 46 57
e 46 59
e 46 60
e 46 62
e 46 63
e 46 70
e 46 74
e 46 76
e 46 78
e 47 50
e 47 53
e 47 57
e 47 68
e 47 69
e 47 71
e 47 75
e 47 77
e 48 53
e 48 59
e 48 65
e 48 68
e 48 72
e 49 56
e 49 59
e 49 63
e 49 65
e 49 70
e 50 54
e 50 66
e 50 72
e 50 73
e 50 79
e 51 55
e 51 56
e 51 71
e 51 74
e 51 75
e 52 55
e 52 58
e 52 64
e 52 68
e 52 71
e 52 75
e 53 55
e 53 58
e 53 65
e 53 72
e 54 57
e 54 69
e 54 72
e 54 76
e 54 79
e 55 68
e 55 74
e 55 75
e 55 77
e 56 61
e 56 66
e 56 69
e 56 80
e 57 58
e 57 80
e 58 61
e 58 63
e 58 71
e 58 73
e 59 61
e 59 64
e 59 67
e 59 69
e 59 74
e 59 77
e 60 62
e 60 64
e 60 74
e 60 78
e 60 80
e 61 62
e 61 64
e 61 67
e 61 72
e 61 75
e 61 78
e 62 64
e 62 65
e 62 68
e 62 71
e 62 77
e 62 79
e 63 66
e 63 69
e 63 70
e 63 74
e 63 77
e 64 70
e 65 75
e 65 76
e 66 71
e 66 73
e 67 69
e 67 76
e 67 78
e 67 79
e 68 69
e 68 73
e 68 74
e 69 73
e 69 76
e 69 77
e 69 79
e 70 77
e 70 79
e 70 80
e 71 72
e 71 74
e 71 75
e 72 74
e 72 76
e 72 79
e 72 80
e 73 75
e 73 80
e 74 78
e 75 78
